100
100
3000 3000 3000 3000 3000 3000 3000 3000 3000 3000 3000 3000 3000 3000 3000 3000 3000 3000 3000 3000 3000 3000 3000 3000 3000 3000 3000 3000 3000 3000 3000 3000 3000 3000 3000 3000 3000 3000 3000 3000 3000 3000 3000 3000 3000 3000 3000 3000 3000 3000 3000 3000 3000 3000 3000 3000 3000 3000 3000 3000 3000 3000 3000 3000 3000 3000 3000 3000 3000 3000 3000 3000 3000 3000 3000 3000 3000 3000 3000 3000 3000 3000 3000 3000 3000 3000 3000 3000 3000 3000 3000 3000 3000 3000 3000 3000 3000 3000 3000 3000
0 16 2
0 18 0
0 30 4
0 56 1
0 80 0
0 84 1
0 95 0
0 97 3
0 98 2
0 99 3
1 9 0
1 19 1
1 28 2
1 31 0
1 32 3
1 42 2
1 45 4
1 46 3
1 49 3
1 59 1
2 13 0
2 14 0
2 23 2
2 24 4
2 44 4
2 74 0
2 86 0
2 89 2
2 90 0
2 91 3
3 40 4
3 67 3
3 69 2
3 75 4
3 76 0
3 82 0
3 85 2
3 87 4
3 88 4
3 93 3
4 10 4
4 16 2
4 24 4
4 27 0
4 42 4
4 51 1
4 52 1
4 70 1
4 78 1
4 82 4
5 0 2
5 4 0
5 32 3
5 34 0
5 44 2
5 71 2
5 73 0
5 78 4
5 82 0
5 88 2
6 11 2
6 16 0
6 26 0
6 30 4
6 45 1
6 47 3
6 49 1
6 53 4
6 58 4
6 74 4
7 0 2
7 7 2
7 8 1
7 36 2
7 40 2
7 47 0
7 58 0
7 63 3
7 83 4
7 87 3
8 22 4
8 23 1
8 26 1
8 38 0
8 51 3
8 75 1
8 83 2
8 86 0
8 88 2
8 92 2
9 22 4
9 59 1
9 62 1
9 64 3
9 67 2
9 68 1
9 72 4
9 74 2
9 76 2
9 79 0
10 0 4
10 3 0
10 13 2
10 15 0
10 46 3
10 49 4
10 57 1
10 69 1
10 77 1
10 80 2
11 12 1
11 15 3
11 20 3
11 28 2
11 29 2
11 30 3
11 35 2
11 38 3
11 43 1
11 48 1
12 29 3
12 38 4
12 41 4
12 54 2
12 83 0
12 93 1
12 96 3
12 97 1
12 98 0
12 99 3
13 3 2
13 7 0
13 17 0
13 36 1
13 41 0
13 62 3
13 79 2
13 80 1
13 84 3
13 86 4
14 14 4
14 23 1
14 25 1
14 43 2
14 47 1
14 89 1
14 94 1
14 96 0
14 97 2
14 99 2
15 7 4
15 14 2
15 15 4
15 18 2
15 30 3
15 33 1
15 37 1
15 38 0
15 42 4
15 52 1
16 9 2
16 22 1
16 25 4
16 62 1
16 69 0
16 76 3
16 94 0
16 95 4
16 96 1
16 99 0
17 7 1
17 17 2
17 24 3
17 55 3
17 61 0
17 66 3
17 83 0
17 87 1
17 91 1
17 92 4
18 1 4
18 3 2
18 11 4
18 29 3
18 30 4
18 51 1
18 53 0
18 62 3
18 83 0
18 87 2
19 3 1
19 20 1
19 24 1
19 48 4
19 51 0
19 55 4
19 60 0
19 78 1
19 89 1
19 97 0
20 1 0
20 18 3
20 22 2
20 65 0
20 66 0
20 67 4
20 71 4
20 78 2
20 81 3
20 85 0
21 0 3
21 4 3
21 9 3
21 13 1
21 26 4
21 27 1
21 36 0
21 47 1
21 51 1
21 56 2
22 43 2
22 67 2
22 81 2
22 93 0
22 94 0
22 95 1
22 96 0
22 97 1
22 98 0
22 99 1
23 0 4
23 15 0
23 26 1
23 49 1
23 63 3
23 71 3
23 77 3
23 86 0
23 92 3
23 93 3
24 11 4
24 18 3
24 23 4
24 27 4
24 31 4
24 37 0
24 39 0
24 46 1
24 49 3
24 50 4
25 13 1
25 20 0
25 25 4
25 28 0
25 29 4
25 33 2
25 55 3
25 65 1
25 68 0
25 89 4
26 0 2
26 10 3
26 14 4
26 23 4
26 34 0
26 35 4
26 47 3
26 57 0
26 58 1
26 60 1
27 5 2
27 17 3
27 45 1
27 53 3
27 77 2
27 81 3
27 91 0
27 92 1
27 93 1
27 95 0
28 8 3
28 14 1
28 18 1
28 24 4
28 25 2
28 32 4
28 41 0
28 63 0
28 67 2
28 72 0
29 23 4
29 29 3
29 35 4
29 59 1
29 67 1
29 77 0
29 78 2
29 81 1
29 89 3
29 91 4
30 2 3
30 17 3
30 19 3
30 21 1
30 25 4
30 30 3
30 37 4
30 39 1
30 40 3
30 61 2
31 9 0
31 10 1
31 12 3
31 21 2
31 29 2
31 32 3
31 36 3
31 43 0
31 54 1
31 64 4
32 15 1
32 27 0
32 58 4
32 73 3
32 76 4
32 81 4
32 82 1
32 86 3
32 95 0
32 96 0
33 1 1
33 12 1
33 17 0
33 26 4
33 33 0
33 38 0
33 50 4
33 60 1
33 70 3
33 79 0
34 21 0
34 39 3
34 47 4
34 58 0
34 66 2
34 80 0
34 89 0
34 92 0
34 94 2
34 98 3
35 2 4
35 13 1
35 16 4
35 23 2
35 33 1
35 41 4
35 46 0
35 54 0
35 59 0
35 61 2
36 6 1
36 10 2
36 13 0
36 14 0
36 30 1
36 33 0
36 42 1
36 48 2
36 59 4
36 61 2
37 5 1
37 8 3
37 31 2
37 42 3
37 44 4
37 48 4
37 61 0
37 78 2
37 81 1
37 84 4
38 8 0
38 20 1
38 25 4
38 29 0
38 31 0
38 36 3
38 38 1
38 39 2
38 47 1
38 53 1
39 2 1
39 11 3
39 16 0
39 24 0
39 33 4
39 44 3
39 46 3
39 66 4
39 73 2
39 74 3
40 11 4
40 19 4
40 20 1
40 38 2
40 45 1
40 54 2
40 68 4
40 87 2
40 88 1
40 90 2
41 6 1
41 18 2
41 21 0
41 31 0
41 32 2
41 41 2
41 44 1
41 54 3
41 70 1
41 77 0
42 5 3
42 8 0
42 9 2
42 17 3
42 22 4
42 39 0
42 46 0
42 48 3
42 68 1
42 69 4
43 5 4
43 11 3
43 22 1
43 24 2
43 31 2
43 40 2
43 57 3
43 70 0
43 86 1
43 89 3
44 5 0
44 6 1
44 34 4
44 41 0
44 56 4
44 59 3
44 63 2
44 71 2
44 75 2
44 78 4
45 2 1
45 11 4
45 12 0
45 13 2
45 36 0
45 53 2
45 55 4
45 57 2
45 58 3
45 80 2
46 46 4
46 55 4
46 62 4
46 69 1
46 74 2
46 91 1
46 95 3
46 97 2
46 98 0
46 99 1
47 27 3
47 51 2
47 55 0
47 56 1
47 57 4
47 58 2
47 60 0
47 72 4
47 76 1
47 77 2
48 13 2
48 14 2
48 52 4
48 69 2
48 70 0
48 71 4
48 82 0
48 85 3
48 88 4
48 90 3
49 16 1
49 25 4
49 30 2
49 49 3
49 64 1
49 73 4
49 82 2
49 84 0
49 85 0
49 87 1
50 0 4
50 4 3
50 11 2
50 19 1
50 26 2
50 55 3
50 78 0
50 82 2
50 83 2
50 84 0
51 0 4
51 7 0
51 28 3
51 37 0
51 45 4
51 52 3
51 53 1
51 69 1
51 73 1
51 76 0
52 1 1
52 43 1
52 65 4
52 68 3
52 69 1
52 85 3
52 91 0
52 94 1
52 96 3
52 99 3
53 42 3
53 49 3
53 52 4
53 59 0
53 60 1
53 72 3
53 73 2
53 80 4
53 84 0
53 86 4
54 0 1
54 20 1
54 21 2
54 28 3
54 39 3
54 40 3
54 44 1
54 48 4
54 62 4
54 69 4
55 49 3
55 61 0
55 66 4
55 68 4
55 72 1
55 75 4
55 82 4
55 91 0
55 94 3
55 98 1
56 4 0
56 10 3
56 31 1
56 55 1
56 58 3
56 63 3
56 68 1
56 72 0
56 73 4
56 81 1
57 19 0
57 31 2
57 35 4
57 36 3
57 48 0
57 61 4
57 70 3
57 76 1
57 87 0
57 94 2
58 2 4
58 9 1
58 10 4
58 52 3
58 53 4
58 71 2
58 81 1
58 93 1
58 96 1
58 97 1
59 7 4
59 20 0
59 44 1
59 88 1
59 93 4
59 94 4
59 96 3
59 97 4
59 98 2
59 99 4
60 16 4
60 21 3
60 32 4
60 34 0
60 37 1
60 46 0
60 47 0
60 50 2
60 54 2
60 57 0
61 3 3
61 6 3
61 12 4
61 14 0
61 17 2
61 26 0
61 28 2
61 41 2
61 44 2
61 56 3
62 6 2
62 16 0
62 18 1
62 34 0
62 39 2
62 40 3
62 43 3
62 50 4
62 52 1
62 56 2
63 8 3
63 25 3
63 31 1
63 52 4
63 57 2
63 59 4
63 75 3
63 79 4
63 83 3
63 87 1
64 19 0
64 33 0
64 38 0
64 48 1
64 60 3
64 74 3
64 78 2
64 86 0
64 88 2
64 91 1
65 1 3
65 10 2
65 15 4
65 27 0
65 35 1
65 44 3
65 56 2
65 65 4
65 66 2
65 68 2
66 9 3
66 23 3
66 32 4
66 47 2
66 56 3
66 58 1
66 60 3
66 72 1
66 74 0
66 80 4
67 6 0
67 18 0
67 32 3
67 49 2
67 67 4
67 72 4
67 77 1
67 80 3
67 82 3
67 85 4
68 5 1
68 10 3
68 30 0
68 37 3
68 39 0
68 42 2
68 48 1
68 53 3
68 57 4
68 63 4
69 19 2
69 34 0
69 43 1
69 51 0
69 61 2
69 63 1
69 65 0
69 89 2
69 90 4
69 95 0
70 2 4
70 5 4
70 8 0
70 9 4
70 35 2
70 45 0
70 46 0
70 56 4
70 72 2
70 75 4
71 7 1
71 28 0
71 35 0
71 51 3
71 53 1
71 58 1
71 65 2
71 75 3
71 79 2
71 83 3
72 4 3
72 9 4
72 20 4
72 22 4
72 45 4
72 47 3
72 50 2
72 59 0
72 63 3
72 71 4
73 5 3
73 12 4
73 25 3
73 45 3
73 51 2
73 55 4
73 57 3
73 66 2
73 71 0
73 85 0
74 7 3
74 18 3
74 20 1
74 21 1
74 54 0
74 60 3
74 62 4
74 64 4
74 73 3
74 76 0
75 1 0
75 6 1
75 13 0
75 21 4
75 26 3
75 29 2
75 65 0
75 70 4
75 71 1
75 74 0
76 3 3
76 24 1
76 33 1
76 40 0
76 41 3
76 46 1
76 69 0
76 74 0
76 84 3
76 91 3
77 9 2
77 14 3
77 17 1
77 28 3
77 38 0
77 52 1
77 75 1
77 85 2
77 90 3
77 96 0
78 7 1
78 14 0
78 27 0
78 36 1
78 37 1
78 39 1
78 43 1
78 50 1
78 64 1
78 70 1
79 4 1
79 12 3
79 32 3
79 42 2
79 54 3
79 55 1
79 62 2
79 77 3
79 78 4
79 84 1
80 6 2
80 12 0
80 22 2
80 45 1
80 63 1
80 65 3
80 72 1
80 79 2
80 89 2
80 90 3
81 1 2
81 4 1
81 5 3
81 6 2
81 19 3
81 22 1
81 25 3
81 26 0
81 33 2
81 35 3
82 1 0
82 10 0
82 24 2
82 43 4
82 49 2
82 50 4
82 63 2
82 65 1
82 77 1
82 87 4
83 1 4
83 2 4
83 3 2
83 8 0
83 11 4
83 18 4
83 26 1
83 27 3
83 32 1
83 40 2
84 5 4
84 6 3
84 16 1
84 19 4
84 27 2
84 28 1
84 37 2
84 41 4
84 50 3
84 59 3
85 4 3
85 40 3
85 41 0
85 42 1
85 53 0
85 60 4
85 64 1
85 67 1
85 81 2
85 84 0
86 35 2
86 52 4
86 56 4
86 61 0
86 70 2
86 84 3
86 88 4
86 90 1
86 92 0
86 93 3
87 11 4
87 12 0
87 13 0
87 24 0
87 34 1
87 37 0
87 40 4
87 51 1
87 64 0
87 79 3
88 8 2
88 21 0
88 36 0
88 39 3
88 62 1
88 66 0
88 73 1
88 85 3
88 90 1
88 92 1
89 16 0
89 17 3
89 42 1
89 45 3
89 64 2
89 65 4
89 74 3
89 75 2
89 76 3
89 85 3
90 2 0
90 4 4
90 15 0
90 34 3
90 79 3
90 80 3
90 82 1
90 97 3
90 98 0
90 99 0
91 17 3
91 28 4
91 66 0
91 80 2
91 88 2
91 92 2
91 94 0
91 95 3
91 96 3
91 98 4
92 3 2
92 10 2
92 15 2
92 23 3
92 44 4
92 61 3
92 67 0
92 68 0
92 71 2
92 75 4
93 8 3
93 34 0
93 76 4
93 77 3
93 83 1
93 89 2
93 90 2
93 93 3
93 94 2
93 95 3
94 0 3
94 1 1
94 3 4
94 15 3
94 21 2
94 50 1
94 54 4
94 64 0
94 67 4
94 70 4
95 2 0
95 22 1
95 31 2
95 38 3
95 50 4
95 57 4
95 79 4
95 83 2
95 87 0
95 88 0
96 3 0
96 20 3
96 27 0
96 29 2
96 30 3
96 34 2
96 35 2
96 36 2
96 54 1
96 64 1
97 7 2
97 15 3
97 19 0
97 29 1
97 33 1
97 43 2
97 73 1
97 79 0
97 86 0
97 92 4
98 2 3
98 12 0
98 37 2
98 66 3
98 92 0
98 93 0
98 95 3
98 97 0
98 98 3
98 99 0
99 4 3
99 23 0
99 48 4
99 60 4
99 62 1
99 68 0
99 81 2
99 86 2
99 90 0
99 91 2
